Version identifier: 22.1.0.0 | 2022-03-09 | 1a383f8ce
CPXPARAM_Threads                                 1
CPXPARAM_MIP_Strategy_VariableSelect             3
CPXPARAM_TimeLimit                               599.99796380999999
Found incumbent of value 0.000000 after 0.00 sec. (0.26 ticks)

Root node processing (before b&c):
  Real time             =    0.00 sec. (0.30 ticks)
Sequential b&c:
  Real time             =    0.00 sec. (0.00 ticks)
                          ------------
Total (root+branch&cut) =    0.00 sec. (0.30 ticks)
Version identifier: 22.1.0.0 | 2022-03-09 | 1a383f8ce
CPXPARAM_Threads                                 1
CPXPARAM_MIP_Strategy_VariableSelect             3
CPXPARAM_TimeLimit                               599.98168984200004
Found incumbent of value 0.000000 after 0.00 sec. (0.31 ticks)

Root node processing (before b&c):
  Real time             =    0.00 sec. (0.35 ticks)
Sequential b&c:
  Real time             =    0.00 sec. (0.00 ticks)
                          ------------
Total (root+branch&cut) =    0.00 sec. (0.35 ticks)
Version identifier: 22.1.0.0 | 2022-03-09 | 1a383f8ce
CPXPARAM_Threads                                 1
CPXPARAM_MIP_Strategy_VariableSelect             3
CPXPARAM_TimeLimit                               599.930326734
Found incumbent of value 0.000000 after 0.00 sec. (0.37 ticks)

Root node processing (before b&c):
  Real time             =    0.00 sec. (0.41 ticks)
Sequential b&c:
  Real time             =    0.00 sec. (0.00 ticks)
                          ------------
Total (root+branch&cut) =    0.00 sec. (0.41 ticks)
Version identifier: 22.1.0.0 | 2022-03-09 | 1a383f8ce
CPXPARAM_Threads                                 1
CPXPARAM_MIP_Strategy_VariableSelect             3
CPXPARAM_TimeLimit                               599.906507895
Tried aggregator 1 time.
MIP Presolve eliminated 19 rows and 627 columns.
MIP Presolve modified 1 coefficients.
Reduced MIP has 1456 rows, 1881 columns, and 17163 nonzeros.
Reduced MIP has 1881 binaries, 0 generals, 0 SOSs, and 0 indicators.
Presolve time = 0.02 sec. (9.80 ticks)
Found incumbent of value 0.000000 after 0.04 sec. (27.87 ticks)

Root node processing (before b&c):
  Real time             =    0.05 sec. (27.96 ticks)
Sequential b&c:
  Real time             =    0.00 sec. (0.00 ticks)
                          ------------
Total (root+branch&cut) =    0.05 sec. (27.96 ticks)
Version identifier: 22.1.0.0 | 2022-03-09 | 1a383f8ce
CPXPARAM_Threads                                 1
CPXPARAM_MIP_Strategy_VariableSelect             3
CPXPARAM_TimeLimit                               599.84323125499998
Tried aggregator 1 time.
MIP Presolve eliminated 19 rows and 639 columns.
MIP Presolve modified 1 coefficients.
Reduced MIP has 1484 rows, 1917 columns, and 17495 nonzeros.
Reduced MIP has 1917 binaries, 0 generals, 0 SOSs, and 0 indicators.
Presolve time = 0.02 sec. (9.98 ticks)
Probing time = 0.00 sec. (2.56 ticks)
Tried aggregator 1 time.
Detecting symmetries...
Reduced MIP has 1484 rows, 1917 columns, and 17495 nonzeros.
Reduced MIP has 1917 binaries, 0 generals, 0 SOSs, and 0 indicators.
Presolve time = 0.01 sec. (11.20 ticks)
Probing time = 0.00 sec. (2.56 ticks)
Clique table members: 1054.
MIP emphasis: balance optimality and feasibility.
MIP search method: dynamic search.
Parallel mode: none, using 1 thread.
Root relaxation solution time = 0.02 sec. (15.99 ticks)

        Nodes                                         Cuts/
   Node  Left     Objective  IInf  Best Integer    Best Bound    ItCnt     Gap

      0     0        0.0000   132                      0.0000      427         
*     0+    0                            0.0000        0.0000             0.00%
      0     0        cutoff              0.0000        0.0000      427    0.00%
Elapsed time = 0.14 sec. (95.19 ticks, tree = 0.01 MB, solutions = 1)

Root node processing (before b&c):
  Real time             =    0.14 sec. (95.26 ticks)
Sequential b&c:
  Real time             =    0.00 sec. (0.00 ticks)
                          ------------
Total (root+branch&cut) =    0.14 sec. (95.26 ticks)
Version identifier: 22.1.0.0 | 2022-03-09 | 1a383f8ce
CPXPARAM_Threads                                 1
CPXPARAM_MIP_Strategy_VariableSelect             3
CPXPARAM_TimeLimit                               599.68700223600001
Tried aggregator 1 time.
MIP Presolve eliminated 19 rows and 645 columns.
MIP Presolve modified 1 coefficients.
Reduced MIP has 1498 rows, 1935 columns, and 17661 nonzeros.
Reduced MIP has 1935 binaries, 0 generals, 0 SOSs, and 0 indicators.
Presolve time = 0.02 sec. (10.07 ticks)
Probing time = 0.00 sec. (2.57 ticks)
Tried aggregator 1 time.
Detecting symmetries...
Reduced MIP has 1498 rows, 1935 columns, and 17661 nonzeros.
Reduced MIP has 1935 binaries, 0 generals, 0 SOSs, and 0 indicators.
Presolve time = 0.01 sec. (11.31 ticks)
Probing time = 0.00 sec. (2.57 ticks)
Clique table members: 1064.
MIP emphasis: balance optimality and feasibility.
MIP search method: dynamic search.
Parallel mode: none, using 1 thread.
Root relaxation solution time = 0.02 sec. (16.94 ticks)

        Nodes                                         Cuts/
   Node  Left     Objective  IInf  Best Integer    Best Bound    ItCnt     Gap

      0     0        0.0000    72                      0.0000      485         
*     0+    0                            0.0000        0.0000             0.00%
      0     0        cutoff              0.0000        0.0000      485    0.00%
Elapsed time = 0.14 sec. (95.47 ticks, tree = 0.01 MB, solutions = 1)

Root node processing (before b&c):
  Real time             =    0.14 sec. (95.55 ticks)
Sequential b&c:
  Real time             =    0.00 sec. (0.00 ticks)
                          ------------
Total (root+branch&cut) =    0.14 sec. (95.55 ticks)
Version identifier: 22.1.0.0 | 2022-03-09 | 1a383f8ce
CPXPARAM_Threads                                 1
CPXPARAM_MIP_Strategy_VariableSelect             3
CPXPARAM_TimeLimit                               599.53292869699999
Tried aggregator 1 time.
MIP Presolve eliminated 19 rows and 648 columns.
MIP Presolve modified 1 coefficients.
Reduced MIP has 1505 rows, 1944 columns, and 17744 nonzeros.
Reduced MIP has 1944 binaries, 0 generals, 0 SOSs, and 0 indicators.
Presolve time = 0.01 sec. (10.12 ticks)
Probing time = 0.00 sec. (2.57 ticks)
Tried aggregator 1 time.
Detecting symmetries...
Reduced MIP has 1505 rows, 1944 columns, and 17744 nonzeros.
Reduced MIP has 1944 binaries, 0 generals, 0 SOSs, and 0 indicators.
Presolve time = 0.01 sec. (11.36 ticks)
Probing time = 0.00 sec. (2.57 ticks)
Clique table members: 1069.
MIP emphasis: balance optimality and feasibility.
MIP search method: dynamic search.
Parallel mode: none, using 1 thread.
Root relaxation solution time = 0.02 sec. (18.24 ticks)

        Nodes                                         Cuts/
   Node  Left     Objective  IInf  Best Integer    Best Bound    ItCnt     Gap

      0     0        0.0000   159                      0.0000      464         
*     0+    0                            0.0000        0.0000             0.00%
      0     0        cutoff              0.0000        0.0000      464    0.00%
Elapsed time = 0.16 sec. (125.44 ticks, tree = 0.01 MB, solutions = 1)

Root node processing (before b&c):
  Real time             =    0.16 sec. (125.52 ticks)
Sequential b&c:
  Real time             =    0.00 sec. (0.00 ticks)
                          ------------
Total (root+branch&cut) =    0.16 sec. (125.52 ticks)
Primal:	216
Dual:	216
Status:	Optimal
Time:	0.645196
Sequence:
	3
	4
	4
	0
	4
	4
	11
	0
	5
	4
	9
	9
	9
	3
	9
	5
	9
	9
	5
	4
	11
	9
	9
	0
	9
	4
	3
	4
	9
	4
	9
	4
	4
	9
	5
	9
	9
	3
	9
	4
	9
	9
	9
	3
	9
	4
	5
	9
	4
	11
	9
	9
	9
	4
	9
	11
	0
	4
	4
	9
	4
	9
	9
	9
	3
	9
	9
	4
	4
	9
	11
	9
	1
	9
	9
	9
	9
	11
	2
	5
	4
	9
	9
	0
	4
	11
	4
	4
	0
	1
	4
	1
	4
	0
	3
	4
	5
	9
	0
	9
	5
	4
	9
	0
	3
	9
	5
	9
	0
	4
	11
	4
	0
	5
	4
	0
	4
	5
	0
	1
	4
	11
	4
	0
	9
	1
	9
	0
	5
	9
	0
	3
	4
	6
	0
	4
	1
	0
	11
	4
	1
	4
	0
	4
	11
	4
	2
	1
	4
	4
	0
	3
	9
	1
	0
	1
	9
	5
	4
	0
	3
	9
	0
	5
	9
	6
	0
	9
	3
	0
	1
	4
	0
	1
	4
	11
	0
	4
	5
	9
	1
	2
	9
	11
	0
	5
	4
	0
	9
	3
	4
	0
	4
	4
	0
	5
	4
	0
	11
	4
	0
	4
	4
	0
	11
	9
	5
	4
	0
	4
	11
	0
	4
	9
	5
	2
